(set-info :Origin "This instance was generated by: BanditFuzz-- an RL fuzzer for SMT solvers" )
(set-info :Author "Joe Scott, Fed Mora, Vijay Ganesh" )
(set-info :Contact "Joe Scott, joseph.scott@uwaterloo.ca")
(set-logic QF_BV)
(declare-const bool_0 Bool)
(declare-const bool_1 Bool)
(declare-const bool_2 Bool)
(declare-const bool_3 Bool)
(declare-const bool_4 Bool)
(declare-const bv_0 (_ BitVec 32))
(declare-const bv_1 (_ BitVec 32))
(declare-const bv_2 (_ BitVec 32))
(declare-const bv_3 (_ BitVec 32))
(declare-const bv_4 (_ BitVec 32))
(assert (=> (bvugt (bvsmod bv_3 #x1d6fea9a ) (bvshl #x599878c8  bv_3)) (bvslt (bvshl #xcf880db3  #x0df162b7 ) (bvsdiv #x72ec23e5  bv_3))))
(assert (bvult (bvmul (bvxnor #x00da874e  #x6e259f3c ) (bvudiv bv_0 bv_0)) (bvashr (bvshl #xcc2eb10d  bv_4) (bvsmod bv_0 #x98947659 ))))
(assert (bvugt (bvsrem (bvurem #x441674ef  bv_2) (bvsmod #x4335e097  #x52ff77de )) (bvand (bvlshr bv_0 #x6ae5b2d5 ) (bvmul bv_1 #x03e76049 ))))
(assert (not (bvslt (bvxor bv_3 bv_4) (bvand bv_4 #x821e91b6 ))))
(assert (bvuge (bvurem (bvlshr #xe0e833d6  #x66dc1eb6 ) (bvor #xb8bd0b9f  bv_0)) (bvlshr (bvand bv_3 bv_3) (bvand bv_4 bv_1))))
(check-sat)
(exit)
